62
150
118	1
116	1
115	1
111	1
110	1
109	2
108	1
105	1
104	3
101	3
100	1
99	2
98	1
97	1
96	1
95	2
92	4
90	1
89	1
87	3
86	2
85	2
84	1
83	3
82	2
81	2
80	1
79	1
78	2
75	1
74	2
73	3
72	1
71	1
70	2
69	2
68	2
67	2
64	1
63	1
62	1
61	1
60	3
56	2
53	2
52	1
50	2
49	1
48	2
47	2
46	2
44	1
42	1
41	1
39	1
38	2
37	3
35	1
34	1
33	1
32	1
31	2
